============================[ Problem Statistics ]=============================
|                                                                             |
|  Number of variables:          5883                                         |
|  Number of clauses:           16961                                         |
|  Parse time:                   0.01 s                                       |
|  Eliminated clauses:           0.05 Mb                                      |
|  Simplification time:          0.01 s                                       |
|                                                                             |
============================[ Search Statistics ]==============================
| Conflicts |          ORIGINAL         |          LEARNT          | Progress |
|           |    Vars  Clauses Literals |    Limit  Clauses Lit/Cl |          |
===============================================================================
|       100 |     294     1320     4407 |      484      100      6 | 74.673 % |
|       250 |     294     1320     4407 |      532      250     15 | 74.673 % |
|       475 |     294     1320     4407 |      585      475     18 | 74.673 % |
|       812 |     294     1320     4407 |      644      812     14 | 74.673 % |
|      1318 |     294     1320     4407 |      708     1318     14 | 74.673 % |
|      2077 |     294     1320     4407 |      779     2077     13 | 74.673 % |
|      3216 |     294     1320     4407 |      857     3216     12 | 74.673 % |
===============================================================================
restarts              : 21
conflicts             : 3999           (66279 /sec)
decisions             : 9576           (0.00 % random) (158711 /sec)
propagations          : 106827         (1770535 /sec)
conflict literals     : 45736          (25.68 % deleted)
Memory used           : 3.26 MB
CPU time              : 0.060336 s

UNSATISFIABLE
